(set-info :smt-lib-version 2.6)
(set-logic QF_S)
(set-info :source |
Generated by: Murphy Berzish, Mitja Kulczynski, Federico Mora, Florin Manea, Joel Day, Dirk Nowotka, Vijay Ganesh, Zhengyang Lu
Generated on: 2020-10-01
Description: Translated from a collection of real-world regex queries, AutomataArk, collected by Loris D’Antoni and Fang Wang: https://github.com/lorisdanto/automatark
Application: Evaluate solvers on real-world regex queries
Target solver: Z3str3RE, CVC4, OSTRICH, Z3seq, Z3str3, Z3-Trau
Publications: Berzish, M., Kulczynski, M., Mora, F., Manea, F., Day, J. D., Nowotka, D., & Ganesh, V. (2021, July). An SMT solver for regular expressions and linear arithmetic over string length. In CAV 2021.
|)
(set-info :license "https://creativecommons.org/licenses/by/4.0/")
(set-info :category "industrial")
(set-info :status unsat)

(declare-const X String)
(assert (str.in_re X (re.++ (str.to_re "Windows") (re.+ (re.union (str.to_re " ") (str.to_re "\u{9}") (str.to_re "\u{a}") (str.to_re "\u{c}") (str.to_re "\u{d}"))) (str.to_re "haveFTUser-Agent:Dayspassword;0;Incorrect\u{a}"))))
(assert (str.in_re X (re.++ (str.to_re "/filename=") (re.opt (re.union (str.to_re "\u{22}") (str.to_re "'"))) (re.* (re.comp (str.to_re "\u{a}"))) (str.to_re ".wpd") (re.union (str.to_re "\u{22}") (str.to_re "'") (str.to_re " ") (str.to_re "\u{9}") (str.to_re "\u{a}") (str.to_re "\u{c}") (str.to_re "\u{d}")) (str.to_re "/si\u{a}"))))
(assert (str.in_re X (re.++ (str.to_re "\u{a}") (re.union (re.++ (str.to_re "http") (re.opt (str.to_re "s"))) (str.to_re "ftp") (str.to_re "gopher") (str.to_re "telnet") (str.to_re "file") (str.to_re "notes") (str.to_re "ms-help")) (str.to_re ":") (re.+ (re.union (str.to_re "//") (str.to_re "\u{5c}\u{5c}"))) (re.* (re.union (re.range "0" "9") (str.to_re ":") (str.to_re "#") (str.to_re "@") (str.to_re "%") (str.to_re "/") (str.to_re ";") (str.to_re "$") (str.to_re "(") (str.to_re ")") (str.to_re "~") (str.to_re "_") (re.range "+" "=") (str.to_re "\u{5c}") (str.to_re ".") (str.to_re "&") (re.range "0" "9") (re.range "A" "Z") (re.range "a" "z") (str.to_re "_"))))))
(assert (str.in_re X (re.++ (str.to_re "/") (re.union (re.range "a" "z") (re.range "0" "9")) (re.* (re.++ (re.opt (re.union (re.+ (str.to_re "_")) (str.to_re "-") (str.to_re "."))) (re.+ (re.union (re.range "a" "z") (re.range "0" "9"))))) (str.to_re "@") (re.union (re.range "a" "z") (re.range "0" "9")) (re.* (re.opt (re.++ (re.opt (re.+ (str.to_re "-"))) (re.+ (re.union (re.range "a" "z") (re.range "0" "9")))))) (str.to_re "/i\u{a}") (re.opt (re.++ re.allchar ((_ re.loop 2 3) (re.range "a" "z")))) re.allchar ((_ re.loop 2 6) (re.range "a" "z")))))
(assert (str.in_re X (re.++ (str.to_re "/poc/") (re.union (str.to_re "Exploit") (str.to_re "myClassLoader") (str.to_re "pocMain") (str.to_re "runCmd")) (str.to_re ".class/ims\u{a}"))))
(check-sat)

(exit)
